data/solutions/recovery/degenerate/intermediate/flexible/degenerate_intermediate_instance23/22.sol
Elapsed time: 100.12
Upper bound: 226880365.0
Planning weighted value: 8.99993587012e+11
C[0]=226880365.0
C[1]=226547205.0
C[2]=226165100.0
C[3]=226101426.0
C[4]=226076106.0
C[5]=225943361.0
C[6]=225826464.0
C[7]=225592947.0
C[8]=224734950.0
C[9]=224419376.0
C[10]=224118600.0
C[11]=0.0
y[0]=9
y[1]=6
y[2]=8
y[3]=2
y[4]=4
y[5]=5
y[6]=4
y[7]=1
y[8]=9
y[9]=3
y[10]=9
y[11]=10
y[12]=8
y[13]=4
y[14]=8
y[15]=5
y[16]=8
y[17]=4
y[18]=5
y[19]=8
y[20]=1
y[21]=4
y[22]=8
y[23]=9
y[24]=7
y[25]=8
y[26]=10
y[27]=8
y[28]=1
y[29]=10
y[30]=3
y[31]=5
y[32]=5
y[33]=1
y[34]=3
y[35]=1
y[36]=10
y[37]=2
y[38]=7
y[39]=9
y[40]=0
y[41]=9
y[42]=2
y[43]=2
y[44]=9
y[45]=6
y[46]=9
y[47]=7
y[48]=0
y[49]=10
y[50]=0
y[51]=3
y[52]=3
y[53]=6
y[54]=2
y[55]=0
y[56]=6
y[57]=9
y[58]=4
y[59]=2
y[60]=6
y[61]=0
y[62]=7
y[63]=7
y[64]=3
y[65]=3
y[66]=0
y[67]=4
y[68]=6
y[69]=7
y[70]=3
y[71]=10
y[72]=5
y[73]=4
y[74]=0
y[75]=9
y[76]=5
y[77]=10
