data/solutions/recovery/degenerate/intermediate/flexible/degenerate_intermediate_instance23/22.log

Log started (V12.6.3.0) Sat Apr 21 15:05:23 2018

New value for default parallel thread count: 1

Problem '/tmp/tmpqE8SMw.pyomo.lp' read.
Read time = 0.01 sec. (0.85 ticks)

Problem name         : /tmp/tmpqE8SMw.pyomo.lp
Objective sense      : Minimize
Variables            :     950  [Nneg: 1,  Binary: 936,  General Integer: 13]
Objective nonzeros   :       1
Linear constraints   :     182  [Less: 90,  Equal: 92]
  Nonzeros           :   61117
  RHS nonzeros       :     157

Variables            : Min LB: 0.000000         Max UB: 1.000000       
Objective nonzeros   : Min   : 1.000000         Max   : 1.000000       
Linear constraints   :
  Nonzeros           : Min   : 1.000000         Max   : 6.145599e+07   
  RHS nonzeros       : Min   : 1.000000         Max   : 8.000000       
Tried aggregator 2 times.
MIP Presolve eliminated 81 rows and 140 columns.
Aggregator did 6 substitutions.
Reduced MIP has 95 rows, 804 columns, and 2247 nonzeros.
Reduced MIP has 792 binaries, 12 generals, 0 SOSs, and 0 indicators.
Presolve time = 0.01 sec. (11.05 ticks)
Found incumbent of value 8.2643768e+08 after 0.01 sec. (12.59 ticks)
Probing time = 0.00 sec. (1.59 ticks)
Tried aggregator 1 time.
Reduced MIP has 95 rows, 804 columns, and 2247 nonzeros.
Reduced MIP has 792 binaries, 12 generals, 0 SOSs, and 0 indicators.
Presolve time = 0.00 sec. (1.15 ticks)
Probing time = 0.00 sec. (1.59 ticks)
Clique table members: 72.
MIP emphasis: balance optimality and feasibility.
MIP search method: dynamic search.
Parallel mode: none, using 1 thread.
Root relaxation solution time = 0.00 sec. (1.43 ticks)

        Nodes                                         Cuts/
   Node  Left     Objective  IInf  Best Integer    Best Bound    ItCnt     Gap

*     0+    0                       8.26438e+08        0.0000           100.00%
      0     0   2.25673e+08    30   8.26438e+08   2.25673e+08      128   72.69%
      0     0   2.25673e+08    23   8.26438e+08      Fract: 5      155   72.69%
      0     0   2.25673e+08    24   8.26438e+08      Fract: 4      168   72.69%
*     0+    0                       2.86142e+08   2.25673e+08            21.13%
*     0+    0                       2.66666e+08   2.25673e+08            15.37%
*     0+    0                       2.64306e+08   2.25673e+08            14.62%
*     0+    0                       2.60370e+08   2.25673e+08            13.33%
*     0+    0                       2.59061e+08   2.25673e+08            12.89%
*     0+    0                       2.54863e+08   2.25673e+08            11.45%
*     0+    0                       2.43223e+08   2.25673e+08             7.22%
      0     2   2.25673e+08    16   2.43223e+08   2.25673e+08      168    7.22%
Elapsed time = 0.05 sec. (56.68 ticks, tree = 0.01 MB, solutions = 8)
*    20+   20                       2.41106e+08   2.25673e+08             6.40%
*    60+   59                       2.40095e+08   2.25673e+08             6.01%
*   200+  156                       2.39271e+08   2.25673e+08             5.68%
*   280+  224                       2.36654e+08   2.25673e+08             4.64%
*   380+  313                       2.36571e+08   2.25673e+08             4.61%
    829   693   2.25673e+08    22   2.36571e+08   2.25673e+08     4441    4.61%
    830   694   2.25673e+08    22   2.36571e+08   2.25673e+08     4448    4.61%
    831   695   2.25673e+08    19   2.36571e+08   2.25673e+08     4457    4.61%
    832   696   2.25673e+08    18   2.36571e+08   2.25673e+08     4459    4.61%
    833   697   2.25673e+08    19   2.36571e+08   2.25673e+08     4461    4.61%
    834   698   2.25673e+08    19   2.36571e+08   2.25673e+08     4462    4.61%
    835   699   2.25673e+08    18   2.36571e+08   2.25673e+08     4464    4.61%
    836   700   2.25673e+08    19   2.36571e+08   2.25673e+08     4467    4.61%
    837   701   2.25673e+08    20   2.36571e+08   2.25673e+08     4468    4.61%
*   997+  742                       2.34314e+08   2.25673e+08             3.69%
*   998+  732                       2.34092e+08   2.25673e+08             3.60%
*   998+  721                       2.33118e+08   2.25673e+08             3.19%
*   998+  720                       2.33015e+08   2.25673e+08             3.15%
*   999+  481                       2.32354e+08   2.25673e+08             2.88%
*   999+  320                       2.31514e+08   2.25673e+08             2.52%
*  1099+  255                       2.30930e+08   2.25673e+08             2.28%
*  1099+  196                       2.30895e+08   2.25673e+08             2.26%
*  1199+  170                       2.30868e+08   2.25673e+08             2.25%
*  1199+  156                       2.30696e+08   2.25673e+08             2.18%
*  1199+  147                       2.30140e+08   2.25673e+08             1.94%
   1281   184   2.25673e+08    19   2.30140e+08   2.25673e+08     6702    1.94%
Elapsed time = 0.85 sec. (1010.85 ticks, tree = 0.10 MB, solutions = 24)
*  1499+  306                       2.28972e+08   2.25673e+08             1.44%
*  1799+  513                       2.28532e+08   2.25673e+08             1.25%
*  1799+  496                       2.28506e+08   2.25673e+08             1.24%
*  1899+  539                       2.28268e+08   2.25673e+08             1.14%
   2519  1049   2.25865e+08    34   2.28268e+08   2.25673e+08    12871    1.14%
   2520  1050   2.25865e+08    34   2.28268e+08   2.25673e+08    12872    1.14%
   2521  1051   2.25865e+08    30   2.28268e+08   2.25673e+08    12880    1.14%
   2522  1052   2.25865e+08    32   2.28268e+08   2.25673e+08    12887    1.14%
   2523  1053   2.25865e+08    32   2.28268e+08   2.25673e+08    12889    1.14%
   2524  1054   2.25865e+08    32   2.28268e+08   2.25673e+08    12890    1.14%
   2525  1055   2.25865e+08    30   2.28268e+08   2.25673e+08    12891    1.14%
   2526  1056   2.25865e+08    33   2.28268e+08   2.25673e+08    12899    1.14%
   2527  1057   2.25865e+08    34   2.28268e+08   2.25673e+08    12903    1.14%
   2528  1058   2.25865e+08    33   2.28268e+08   2.25673e+08    12905    1.14%
Elapsed time = 1.64 sec. (1968.08 ticks, tree = 0.63 MB, solutions = 28)
   6139  4077   2.26286e+08    32   2.28268e+08   2.25673e+08    29443    1.14%
   6140  4078   2.26286e+08    31   2.28268e+08   2.25673e+08    29444    1.14%
   6141  4079   2.26286e+08    29   2.28268e+08   2.25673e+08    29449    1.14%
   6142  4080   2.26286e+08    29   2.28268e+08   2.25673e+08    29450    1.14%
   6143  4081   2.26295e+08    30   2.28268e+08   2.25673e+08    29451    1.14%
   6144  4082   2.26295e+08    30   2.28268e+08   2.25673e+08    29452    1.14%
   6145  4082   2.26295e+08    33   2.28268e+08   2.25673e+08    29454    1.14%
   6146  4083   2.26295e+08    32   2.28268e+08   2.25673e+08    29456    1.14%
   6147  4084   2.26295e+08    30   2.28268e+08   2.25673e+08    29460    1.14%
   6148  4084   2.26298e+08    31   2.28268e+08   2.25673e+08    29461    1.14%
Elapsed time = 2.37 sec. (2923.31 ticks, tree = 2.38 MB, solutions = 28)
   9816  6945   2.25673e+08    29   2.28268e+08   2.25673e+08    48954    1.14%
   9817  6946   2.25673e+08    28   2.28268e+08   2.25673e+08    48957    1.14%
   9818  6947   2.25673e+08    30   2.28268e+08   2.25673e+08    48960    1.14%
   9819  6948   2.25673e+08    30   2.28268e+08   2.25673e+08    48961    1.14%
   9820  6949   2.25673e+08    30   2.28268e+08   2.25673e+08    48967    1.14%
   9821  6950   2.25673e+08    28   2.28268e+08   2.25673e+08    48968    1.14%
   9822  6951   2.25673e+08    28   2.28268e+08   2.25673e+08    48969    1.14%
   9823  6952   2.26265e+08    35   2.28268e+08   2.25673e+08    49041    1.14%
   9824  6953   2.26287e+08    35   2.28268e+08   2.25673e+08    49044    1.14%
   9825  6954   2.26395e+08    36   2.28268e+08   2.25673e+08    49057    1.14%
Elapsed time = 3.11 sec. (3880.37 ticks, tree = 4.11 MB, solutions = 28)
  11815  8641   2.27410e+08    12   2.28268e+08   2.25673e+08    61242    1.14%
  11816  8642   2.27410e+08    10   2.28268e+08   2.25673e+08    61255    1.14%
  11817  8641        cutoff         2.28268e+08   2.25673e+08    61261    1.14%
  11818  8640    infeasible         2.28268e+08   2.25673e+08    61261    1.14%
  11819  8641   2.25673e+08    31   2.28268e+08   2.25673e+08    61278    1.14%
  11820  8642   2.25673e+08    30   2.28268e+08   2.25673e+08    61280    1.14%
  11821  8643   2.25673e+08    25   2.28268e+08   2.25673e+08    61286    1.14%
  11822  8644   2.25673e+08    26   2.28268e+08   2.25673e+08    61288    1.14%
  11823  8645   2.25673e+08    26   2.28268e+08   2.25673e+08    61291    1.14%
  11824  8646   2.25673e+08    27   2.28268e+08   2.25673e+08    61292    1.14%
Elapsed time = 3.91 sec. (4841.50 ticks, tree = 5.28 MB, solutions = 28)
  15244 11544        cutoff         2.28268e+08   2.25673e+08    85694    1.14%
  15245 11543        cutoff         2.28268e+08   2.25673e+08    85701    1.14%
  15246 11542    infeasible         2.28268e+08   2.25673e+08    85754    1.14%
  15247 11543   2.25673e+08    26   2.28268e+08   2.25673e+08    85763    1.14%
  15248 11544   2.25673e+08    26   2.28268e+08   2.25673e+08    85766    1.14%
  15249 11545   2.25673e+08    26   2.28268e+08   2.25673e+08    85769    1.14%
  15250 11546   2.25673e+08    27   2.28268e+08   2.25673e+08    85775    1.14%
  15251 11547   2.25673e+08    24   2.28268e+08   2.25673e+08    85778    1.14%
  15252 11548   2.25673e+08    25   2.28268e+08   2.25673e+08    85781    1.14%
  15253 11549   2.25673e+08    25   2.28268e+08   2.25673e+08    85782    1.14%
Elapsed time = 4.70 sec. (5798.91 ticks, tree = 6.91 MB, solutions = 28)
  18077 13903        cutoff         2.28268e+08   2.25673e+08   106145    1.14%
  18078 13902        cutoff         2.28268e+08   2.25673e+08   106148    1.14%
  18079 13903   2.25673e+08    21   2.28268e+08   2.25673e+08   106161    1.14%
  18080 13904   2.25673e+08    20   2.28268e+08   2.25673e+08   106167    1.14%
  18081 13905   2.25673e+08    20   2.28268e+08   2.25673e+08   106168    1.14%
  18082 13906   2.25673e+08    22   2.28268e+08   2.25673e+08   106180    1.14%
  18083 13907   2.25673e+08    20   2.28268e+08   2.25673e+08   106183    1.14%
  18084 13908   2.25673e+08    20   2.28268e+08   2.25673e+08   106185    1.14%
  18085 13909   2.25673e+08    20   2.28268e+08   2.25673e+08   106190    1.14%
  18086 13910   2.25673e+08    20   2.28268e+08   2.25673e+08   106192    1.14%
Elapsed time = 5.42 sec. (6760.70 ticks, tree = 8.18 MB, solutions = 28)
  21142 16435   2.25673e+08    19   2.28268e+08   2.25673e+08   129505    1.14%
  21143 16436   2.25673e+08    19   2.28268e+08   2.25673e+08   129506    1.14%
  21144 16437   2.25673e+08    20   2.28268e+08   2.25673e+08   129509    1.14%
  21145 16438   2.25673e+08    19   2.28268e+08   2.25673e+08   129511    1.14%
  21146 16439   2.25673e+08    19   2.28268e+08   2.25673e+08   129512    1.14%
  21147 16440   2.25673e+08    18   2.28268e+08   2.25673e+08   129514    1.14%
  21148 16441   2.25722e+08    29   2.28268e+08   2.25673e+08   129543    1.14%
  21149 16442   2.25722e+08    30   2.28268e+08   2.25673e+08   129547    1.14%
  21150 16443   2.25722e+08    32   2.28268e+08   2.25673e+08   129549    1.14%
  21151 16444   2.25722e+08    33   2.28268e+08   2.25673e+08   129559    1.14%
Elapsed time = 6.14 sec. (7717.36 ticks, tree = 10.05 MB, solutions = 28)
  24427 19242   2.25673e+08    27   2.28268e+08   2.25673e+08   150108    1.14%
  24428 19243   2.25673e+08    27   2.28268e+08   2.25673e+08   150111    1.14%
  24429 19244   2.25673e+08    25   2.28268e+08   2.25673e+08   150119    1.14%
  24430 19243        cutoff         2.28268e+08   2.25673e+08   150311    1.14%
  24431 19242        cutoff         2.28268e+08   2.25673e+08   150380    1.14%
  24432 19243   2.25673e+08    26   2.28268e+08   2.25673e+08   150405    1.14%
  24433 19244   2.25673e+08    26   2.28268e+08   2.25673e+08   150433    1.14%
  24434 19245   2.25673e+08    27   2.28268e+08   2.25673e+08   150454    1.14%
  24435 19246   2.25673e+08    28   2.28268e+08   2.25673e+08   150485    1.14%
  24436 19247   2.25673e+08    29   2.28268e+08   2.25673e+08   150490    1.14%
Elapsed time = 6.86 sec. (8686.17 ticks, tree = 11.54 MB, solutions = 28)
  28206 22586        cutoff         2.28268e+08   2.25673e+08   172627    1.14%
  28207 22585        cutoff         2.28268e+08   2.25673e+08   172660    1.14%
  28208 22586   2.25673e+08    24   2.28268e+08   2.25673e+08   172666    1.14%
  28209 22587   2.25673e+08    23   2.28268e+08   2.25673e+08   172667    1.14%
  28210 22588   2.25673e+08    23   2.28268e+08   2.25673e+08   172668    1.14%
  28211 22589   2.25673e+08    26   2.28268e+08   2.25673e+08   172674    1.14%
  28212 22590   2.25673e+08    29   2.28268e+08   2.25673e+08   172677    1.14%
  28213 22591   2.25673e+08    27   2.28268e+08   2.25673e+08   172678    1.14%
  28214 22592   2.25673e+08    28   2.28268e+08   2.25673e+08   172684    1.14%
  36947 30170   2.26620e+08    35   2.28268e+08   2.25673e+08   239487    1.14%
Elapsed time = 9.68 sec. (12500.99 ticks, tree = 17.58 MB, solutions = 28)
  48391 39943   2.25673e+08    23   2.28268e+08   2.25673e+08   325526    1.14%
  48392 39942        cutoff         2.28268e+08   2.25673e+08   325533    1.14%
  48393 39941        cutoff         2.28268e+08   2.25673e+08   325540    1.14%
  48394 39940        cutoff         2.28268e+08   2.25673e+08   325563    1.14%
  48395 39939    infeasible         2.28268e+08   2.25673e+08   325605    1.14%
  48396 39938    infeasible         2.28268e+08   2.25673e+08   325605    1.14%
  48397 39939   2.25673e+08    29   2.28268e+08   2.25673e+08   325662    1.14%
  48398 39940   2.25673e+08    26   2.28268e+08   2.25673e+08   325672    1.14%
  48399 39941   2.25673e+08    29   2.28268e+08   2.25673e+08   325692    1.14%
  48400 39942   2.25673e+08    25   2.28268e+08   2.25673e+08   325718    1.14%
Elapsed time = 12.50 sec. (16328.73 ticks, tree = 24.01 MB, solutions = 28)
  56097 45842   2.25673e+08    22   2.28268e+08   2.25673e+08   413099    1.14%
  56098 45843   2.25673e+08    24   2.28268e+08   2.25673e+08   413110    1.14%
  56099 45844   2.25673e+08    22   2.28268e+08   2.25673e+08   413122    1.14%
  56100 45845   2.25673e+08    23   2.28268e+08   2.25673e+08   413133    1.14%
  56101 45846   2.25673e+08    23   2.28268e+08   2.25673e+08   413134    1.14%
  56102 45847   2.25675e+08    32   2.28268e+08   2.25673e+08   413285    1.14%
  56103 45848   2.25675e+08    32   2.28268e+08   2.25673e+08   413286    1.14%
  56104 45849   2.25675e+08    32   2.28268e+08   2.25673e+08   413287    1.14%
  56105 45850   2.25675e+08    32   2.28268e+08   2.25673e+08   413288    1.14%
  56106 45851   2.25675e+08    32   2.28268e+08   2.25673e+08   413289    1.14%
Elapsed time = 15.25 sec. (20151.22 ticks, tree = 27.39 MB, solutions = 28)
  61465 49572   2.25775e+08    45   2.28268e+08   2.25673e+08   501703    1.14%
  61466 49571        cutoff         2.28268e+08   2.25673e+08   501736    1.14%
  61467 49570        cutoff         2.28268e+08   2.25673e+08   501761    1.14%
  61468 49569        cutoff         2.28268e+08   2.25673e+08   501805    1.14%
  61469 49570   2.25673e+08    23   2.28268e+08   2.25673e+08   501828    1.14%
  61470 49571   2.25673e+08    24   2.28268e+08   2.25673e+08   501838    1.14%
  61471 49572   2.25673e+08    28   2.28268e+08   2.25673e+08   501842    1.14%
  61472 49573   2.25673e+08    26   2.28268e+08   2.25673e+08   501849    1.14%
  61473 49574   2.25673e+08    26   2.28268e+08   2.25673e+08   501859    1.14%
  61474 49575   2.25673e+08    25   2.28268e+08   2.25673e+08   501863    1.14%
Elapsed time = 17.95 sec. (23982.19 ticks, tree = 29.47 MB, solutions = 28)
  68284 55302   2.25673e+08    31   2.28268e+08   2.25673e+08   589261    1.14%
  68285 55303   2.25673e+08    33   2.28268e+08   2.25673e+08   589268    1.14%
  68286 55302        cutoff         2.28268e+08   2.25673e+08   589418    1.14%
  68287 55303   2.25673e+08    28   2.28268e+08   2.25673e+08   589430    1.14%
  68288 55304   2.25673e+08    32   2.28268e+08   2.25673e+08   589431    1.14%
  68289 55305   2.25673e+08    30   2.28268e+08   2.25673e+08   589433    1.14%
  68290 55306   2.25673e+08    30   2.28268e+08   2.25673e+08   589470    1.14%
  68291 55307   2.25673e+08    22   2.28268e+08   2.25673e+08   589510    1.14%
  68292 55306        cutoff         2.28268e+08   2.25673e+08   589547    1.14%
  68293 55307   2.25673e+08    24   2.28268e+08   2.25673e+08   589580    1.14%
Elapsed time = 20.68 sec. (27809.26 ticks, tree = 32.72 MB, solutions = 28)
  73641 59674   2.26213e+08    27   2.28268e+08   2.25673e+08   683340    1.14%
  73642 59675   2.26433e+08    27   2.28268e+08   2.25673e+08   683346    1.14%
  73643 59676   2.26433e+08    29   2.28268e+08   2.25673e+08   683349    1.14%
  73644 59677   2.26433e+08    28   2.28268e+08   2.25673e+08   683352    1.14%
  73645 59678   2.26436e+08    28   2.28268e+08   2.25673e+08   683359    1.14%
  73646 59679   2.26436e+08    28   2.28268e+08   2.25673e+08   683360    1.14%
  73647 59680   2.26436e+08    28   2.28268e+08   2.25673e+08   683361    1.14%
  73648 59680   2.26436e+08    27   2.28268e+08   2.25673e+08   683362    1.14%
  73649 59681   2.27715e+08    23   2.28268e+08   2.25673e+08   683379    1.14%
  73650 59682   2.27715e+08    27   2.28268e+08   2.25673e+08   683381    1.14%
Elapsed time = 23.33 sec. (31626.66 ticks, tree = 35.17 MB, solutions = 28)
  78629 63312   2.25673e+08    19   2.28268e+08   2.25673e+08   764173    1.14%
  78630 63313   2.25673e+08    17   2.28268e+08   2.25673e+08   764177    1.14%
  78631 63314   2.25673e+08    18   2.28268e+08   2.25673e+08   764184    1.14%
  78632 63315   2.25673e+08    18   2.28268e+08   2.25673e+08   764187    1.14%
  78633 63316   2.25673e+08    18   2.28268e+08   2.25673e+08   764194    1.14%
  78634 63317   2.25673e+08    19   2.28268e+08   2.25673e+08   764257    1.14%
  78635 63318   2.26010e+08    35   2.28268e+08   2.25673e+08   764365    1.14%
  78636 63319   2.26862e+08    28   2.28268e+08   2.25673e+08   764377    1.14%
  78637 63320   2.26911e+08    29   2.28268e+08   2.25673e+08   764379    1.14%
  78638 63319        cutoff         2.28268e+08   2.25673e+08   764382    1.14%
Elapsed time = 26.05 sec. (35447.62 ticks, tree = 37.28 MB, solutions = 28)
  81527 64840   2.25673e+08    20   2.28268e+08   2.25673e+08   850351    1.14%
  81528 64841   2.25673e+08    20   2.28268e+08   2.25673e+08   850359    1.14%
  81529 64842   2.25673e+08    19   2.28268e+08   2.25673e+08   850442    1.14%
  81530 64841   2.27278e+08    30   2.28268e+08   2.25673e+08   850500    1.14%
  81531 64840        cutoff         2.28268e+08   2.25673e+08   850676    1.14%
  81532 64839    infeasible         2.28268e+08   2.25673e+08   850676    1.14%
  81533 64840   2.25673e+08    20   2.28268e+08   2.25673e+08   850784    1.14%
  81534 64841   2.25673e+08    18   2.28268e+08   2.25673e+08   850894    1.14%
  81535 64842   2.25673e+08    21   2.28268e+08   2.25673e+08   850919    1.14%
  81536 64843   2.25673e+08    20   2.28268e+08   2.25673e+08   850967    1.14%
Elapsed time = 28.74 sec. (39286.42 ticks, tree = 38.18 MB, solutions = 28)
* 82499+65178                       2.28235e+08   2.25673e+08             1.12%
* 82599+65175                       2.28197e+08   2.25673e+08             1.11%
  84824 66556   2.25778e+08    37   2.28197e+08   2.25673e+08   945005    1.11%
  84825 66555        cutoff         2.28197e+08   2.25673e+08   945035    1.11%
  84826 66555   2.25886e+08    34   2.28197e+08   2.25673e+08   945040    1.11%
  84827 66556   2.25886e+08    34   2.28197e+08   2.25673e+08   945041    1.11%
  84828 66557   2.25899e+08    34   2.28197e+08   2.25673e+08   945042    1.11%
  84829 66557   2.25973e+08    33   2.28197e+08   2.25673e+08   945045    1.11%
  84830 66558   2.25974e+08    33   2.28197e+08   2.25673e+08   945046    1.11%
  84831 66559   2.25979e+08    33   2.28197e+08   2.25673e+08   945047    1.11%
  84832 66560   2.26007e+08    37   2.28197e+08   2.25673e+08   945052    1.11%
  84833 66561   2.26010e+08    37   2.28197e+08   2.25673e+08   945053    1.11%
Elapsed time = 31.48 sec. (43106.62 ticks, tree = 41.14 MB, solutions = 30)
* 85599+66507                       2.28034e+08   2.25673e+08             1.04%
  88783 68254        cutoff         2.28034e+08   2.25673e+08  1035088    1.04%
  88784 68253    infeasible         2.28034e+08   2.25673e+08  1035088    1.04%
  88785 68252        cutoff         2.28034e+08   2.25673e+08  1035128    1.04%
  88786 68253   2.25673e+08    16   2.28034e+08   2.25673e+08  1035171    1.04%
  88787 68254   2.25673e+08    15   2.28034e+08   2.25673e+08  1035200    1.04%
  88788 68255   2.25673e+08    13   2.28034e+08   2.25673e+08  1035214    1.04%
  88789 68256   2.25673e+08    13   2.28034e+08   2.25673e+08  1035215    1.04%
  88790 68255   2.25890e+08    23   2.28034e+08   2.25673e+08  1035219    1.04%
  88791 68254    infeasible         2.28034e+08   2.25673e+08  1035276    1.04%
  88792 68253    infeasible         2.28034e+08   2.25673e+08  1035371    1.04%
Elapsed time = 34.47 sec. (46931.96 ticks, tree = 42.20 MB, solutions = 31)
* 90499+67419                       2.27546e+08   2.25673e+08             0.82%
* 90599+64155                       2.26947e+08   2.25673e+08             0.56%
  92245 64608        cutoff         2.26947e+08   2.25673e+08  1124503    0.56%
  92246 64607        cutoff         2.26947e+08   2.25673e+08  1124546    0.56%
  92247 64606        cutoff         2.26947e+08   2.25673e+08  1124563    0.56%
  92248 64607   2.25673e+08    15   2.26947e+08   2.25673e+08  1124625    0.56%
  92249 64608   2.25673e+08    17   2.26947e+08   2.25673e+08  1124655    0.56%
  92250 64609   2.25673e+08    14   2.26947e+08   2.25673e+08  1124668    0.56%
  92251 64610   2.25673e+08    20   2.26947e+08   2.25673e+08  1124729    0.56%
  92252 64611   2.25673e+08    20   2.26947e+08   2.25673e+08  1124755    0.56%
  92253 64612   2.25673e+08    19   2.26947e+08   2.25673e+08  1124759    0.56%
  92254 64613   2.25673e+08    21   2.26947e+08   2.25673e+08  1124860    0.56%
Elapsed time = 38.06 sec. (50761.87 ticks, tree = 39.88 MB, solutions = 33)
  96104 66118   2.25673e+08    28   2.26947e+08   2.25673e+08  1217563    0.56%
  96105 66119   2.25673e+08    33   2.26947e+08   2.25673e+08  1217622    0.56%
  96106 66120   2.25673e+08    33   2.26947e+08   2.25673e+08  1217625    0.56%
  96107 66121   2.25673e+08    33   2.26947e+08   2.25673e+08  1217626    0.56%
  96108 66122   2.25675e+08    33   2.26947e+08   2.25673e+08  1217630    0.56%
  96109 66123   2.25675e+08    33   2.26947e+08   2.25673e+08  1217632    0.56%
  96110 66124   2.25675e+08    34   2.26947e+08   2.25673e+08  1217635    0.56%
  96111 66125   2.25675e+08    33   2.26947e+08   2.25673e+08  1217638    0.56%
  96112 66126   2.25675e+08    33   2.26947e+08   2.25673e+08  1217640    0.56%
  96113 66126   2.26753e+08    31   2.26947e+08   2.25673e+08  1217667    0.56%
Elapsed time = 41.69 sec. (54587.50 ticks, tree = 40.85 MB, solutions = 33)
  99483 67359        cutoff         2.26947e+08   2.25673e+08  1308613    0.56%
  99484 67359   2.25731e+08    29   2.26947e+08   2.25673e+08  1308641    0.56%
  99485 67358    infeasible         2.26947e+08   2.25673e+08  1308641    0.56%
  99486 67359   2.25673e+08    21   2.26947e+08   2.25673e+08  1308655    0.56%
  99487 67360   2.25673e+08    19   2.26947e+08   2.25673e+08  1308679    0.56%
  99488 67361   2.25673e+08    25   2.26947e+08   2.25673e+08  1308715    0.56%
  99489 67362   2.26352e+08    30   2.26947e+08   2.25673e+08  1308788    0.56%
  99490 67361        cutoff         2.26947e+08   2.25673e+08  1308789    0.56%
  99491 67360        cutoff         2.26947e+08   2.25673e+08  1308796    0.56%
  99492 67359        cutoff         2.26947e+08   2.25673e+08  1308833    0.56%
Elapsed time = 45.30 sec. (58409.87 ticks, tree = 41.60 MB, solutions = 33)
 103634 70389   2.25673e+08    27   2.26947e+08   2.25673e+08  1398558    0.56%
 103635 70390   2.25673e+08    25   2.26947e+08   2.25673e+08  1398579    0.56%
 103636 70391   2.25673e+08    26   2.26947e+08   2.25673e+08  1398594    0.56%
 103637 70392   2.25674e+08    37   2.26947e+08   2.25673e+08  1398613    0.56%
 103638 70393   2.25674e+08    36   2.26947e+08   2.25673e+08  1398615    0.56%
 103639 70394   2.25674e+08    36   2.26947e+08   2.25673e+08  1398616    0.56%
 103640 70395   2.25674e+08    36   2.26947e+08   2.25673e+08  1398617    0.56%
 103641 70396   2.25674e+08    36   2.26947e+08   2.25673e+08  1398618    0.56%
 103642 70397   2.25674e+08    40   2.26947e+08   2.25673e+08  1398619    0.56%
 103643 70398   2.25674e+08    36   2.26947e+08   2.25673e+08  1398620    0.56%
Elapsed time = 48.78 sec. (62228.26 ticks, tree = 43.35 MB, solutions = 33)
 108075 73545        cutoff         2.26947e+08   2.25673e+08  1481995    0.56%
 108076 73544    infeasible         2.26947e+08   2.25673e+08  1482047    0.56%
 108077 73543        cutoff         2.26947e+08   2.25673e+08  1482072    0.56%
 108078 73542        cutoff         2.26947e+08   2.25673e+08  1482086    0.56%
 108079 73541        cutoff         2.26947e+08   2.25673e+08  1482145    0.56%
 108080 73540        cutoff         2.26947e+08   2.25673e+08  1482181    0.56%
 108081 73539        cutoff         2.26947e+08   2.25673e+08  1482227    0.56%
 108082 73538        cutoff         2.26947e+08   2.25673e+08  1482290    0.56%
 108083 73537        cutoff         2.26947e+08   2.25673e+08  1482349    0.56%
 108084 73536    infeasible         2.26947e+08   2.25673e+08  1482412    0.56%
Elapsed time = 52.27 sec. (66058.37 ticks, tree = 45.23 MB, solutions = 33)
 112509 76819   2.25673e+08    19   2.26947e+08   2.25673e+08  1566662    0.56%
 112510 76820   2.25673e+08    21   2.26947e+08   2.25673e+08  1566678    0.56%
 112511 76821   2.25673e+08    19   2.26947e+08   2.25673e+08  1566679    0.56%
 112512 76822   2.25673e+08    19   2.26947e+08   2.25673e+08  1566695    0.56%
 112513 76823   2.25673e+08    20   2.26947e+08   2.25673e+08  1566696    0.56%
 112514 76824   2.25673e+08    25   2.26947e+08   2.25673e+08  1566748    0.56%
 112515 76825   2.25673e+08    22   2.26947e+08   2.25673e+08  1566764    0.56%
 112516 76826   2.25673e+08    23   2.26947e+08   2.25673e+08  1566784    0.56%
 112517 76827   2.25673e+08    20   2.26947e+08   2.25673e+08  1566785    0.56%
 112518 76826        cutoff         2.26947e+08   2.25673e+08  1566865    0.56%
Elapsed time = 55.85 sec. (69882.17 ticks, tree = 47.14 MB, solutions = 33)
 116499 78827   2.25673e+08    24   2.26947e+08   2.25673e+08  1658671    0.56%
 116500 78828   2.25673e+08    20   2.26947e+08   2.25673e+08  1658672    0.56%
 116501 78829   2.25673e+08    23   2.26947e+08   2.25673e+08  1658675    0.56%
 116502 78830   2.25673e+08    21   2.26947e+08   2.25673e+08  1658676    0.56%
 116503 78831   2.25673e+08    22   2.26947e+08   2.25673e+08  1658694    0.56%
 116504 78832   2.25673e+08    22   2.26947e+08   2.25673e+08  1658718    0.56%
 116505 78831        cutoff         2.26947e+08   2.25673e+08  1658836    0.56%
 116506 78832   2.25840e+08    34   2.26947e+08   2.25673e+08  1658868    0.56%
 116507 78831        cutoff         2.26947e+08   2.25673e+08  1658878    0.56%
 116508 78832   2.25840e+08    34   2.26947e+08   2.25673e+08  1658883    0.56%
Elapsed time = 59.47 sec. (73720.00 ticks, tree = 48.37 MB, solutions = 33)
 120278 80498        cutoff         2.26947e+08   2.25673e+08  1748494    0.56%
 120279 80497    infeasible         2.26947e+08   2.25673e+08  1748494    0.56%
 120280 80496    infeasible         2.26947e+08   2.25673e+08  1748561    0.56%
 120281 80495    infeasible         2.26947e+08   2.25673e+08  1748561    0.56%
 120282 80494    infeasible         2.26947e+08   2.25673e+08  1748561    0.56%
 120283 80493    infeasible         2.26947e+08   2.25673e+08  1748561    0.56%
 120284 80492    infeasible         2.26947e+08   2.25673e+08  1748561    0.56%
 120285 80491    infeasible         2.26947e+08   2.25673e+08  1748614    0.56%
 120286 80490    infeasible         2.26947e+08   2.25673e+08  1748614    0.56%
 120287 80489    infeasible         2.26947e+08   2.25673e+08  1748614    0.56%
Elapsed time = 63.03 sec. (77540.39 ticks, tree = 49.36 MB, solutions = 33)
 125369 84640   2.25673e+08    25   2.26947e+08   2.25673e+08  1833097    0.56%
 125370 84641   2.25673e+08    25   2.26947e+08   2.25673e+08  1833108    0.56%
 125371 84642   2.25673e+08    23   2.26947e+08   2.25673e+08  1833116    0.56%
 125372 84643   2.25673e+08    29   2.26947e+08   2.25673e+08  1833145    0.56%
 125373 84644   2.25673e+08    26   2.26947e+08   2.25673e+08  1833164    0.56%
 125374 84645   2.25673e+08    24   2.26947e+08   2.25673e+08  1833166    0.56%
 125375 84646   2.25673e+08    26   2.26947e+08   2.25673e+08  1833169    0.56%
 125376 84647   2.25673e+08    24   2.26947e+08   2.25673e+08  1833170    0.56%
 125377 84648   2.25673e+08    27   2.26947e+08   2.25673e+08  1833174    0.56%
 125378 84649   2.25673e+08    27   2.26947e+08   2.25673e+08  1833179    0.56%
Elapsed time = 66.63 sec. (81359.06 ticks, tree = 51.79 MB, solutions = 33)
 129743 87414        cutoff         2.26947e+08   2.25673e+08  1915348    0.56%
 129744 87413    infeasible         2.26947e+08   2.25673e+08  1915348    0.56%
 129745 87412        cutoff         2.26947e+08   2.25673e+08  1915354    0.56%
 129746 87411        cutoff         2.26947e+08   2.25673e+08  1915383    0.56%
 129747 87410    infeasible         2.26947e+08   2.25673e+08  1915383    0.56%
 129748 87409    infeasible         2.26947e+08   2.25673e+08  1915383    0.56%
 129749 87408        cutoff         2.26947e+08   2.25673e+08  1915395    0.56%
 129750 87407        cutoff         2.26947e+08   2.25673e+08  1915407    0.56%
 129751 87406        cutoff         2.26947e+08   2.25673e+08  1915452    0.56%
 129752 87405        cutoff         2.26947e+08   2.25673e+08  1915474    0.56%
Elapsed time = 70.10 sec. (85178.16 ticks, tree = 53.41 MB, solutions = 33)
 133372 89185   2.25673e+08    19   2.26947e+08   2.25673e+08  2006986    0.56%
 133373 89186   2.25673e+08    19   2.26947e+08   2.25673e+08  2006988    0.56%
 133374 89187   2.25673e+08    18   2.26947e+08   2.25673e+08  2006990    0.56%
 133375 89188   2.25673e+08    18   2.26947e+08   2.25673e+08  2007012    0.56%
 133376 89189   2.25673e+08    19   2.26947e+08   2.25673e+08  2007026    0.56%
 133377 89190   2.25673e+08    25   2.26947e+08   2.25673e+08  2007063    0.56%
 133378 89191   2.25995e+08    33   2.26947e+08   2.25673e+08  2007210    0.56%
 133379 89190        cutoff         2.26947e+08   2.25673e+08  2007212    0.56%
 133380 89189    infeasible         2.26947e+08   2.25673e+08  2007216    0.56%
 133381 89190   2.26076e+08    29   2.26947e+08   2.25673e+08  2007295    0.56%
Elapsed time = 73.63 sec. (89007.18 ticks, tree = 54.50 MB, solutions = 33)
 137124 90707    infeasible         2.26947e+08   2.25673e+08  2098971    0.56%
 137125 90708   2.26074e+08    29   2.26947e+08   2.25673e+08  2099114    0.56%
 137126 90707        cutoff         2.26947e+08   2.25673e+08  2099116    0.56%
 137127 90706    infeasible         2.26947e+08   2.25673e+08  2099116    0.56%
 137128 90705        cutoff         2.26947e+08   2.25673e+08  2099259    0.56%
 137129 90704    infeasible         2.26947e+08   2.25673e+08  2099259    0.56%
 137130 90703    infeasible         2.26947e+08   2.25673e+08  2099259    0.56%
 137131 90704   2.25673e+08    26   2.26947e+08   2.25673e+08  2099334    0.56%
 137132 90705   2.25673e+08    22   2.26947e+08   2.25673e+08  2099430    0.56%
 137133 90706   2.25673e+08    27   2.26947e+08   2.25673e+08  2099473    0.56%
Elapsed time = 77.17 sec. (92840.64 ticks, tree = 55.47 MB, solutions = 33)
*137899+90647                       2.26891e+08   2.25673e+08             0.54%
 140923 91879   2.26076e+08    18   2.26891e+08   2.25673e+08  2187760    0.54%
 140924 91880   2.26076e+08    18   2.26891e+08   2.25673e+08  2187791    0.54%
 140925 91881   2.26076e+08    15   2.26891e+08   2.25673e+08  2187804    0.54%
 140926 91882   2.26076e+08    15   2.26891e+08   2.25673e+08  2187806    0.54%
 140927 91881    infeasible         2.26891e+08   2.25673e+08  2187806    0.54%
 140928 91882   2.26076e+08    15   2.26891e+08   2.25673e+08  2187808    0.54%
 140929 91883   2.26076e+08    15   2.26891e+08   2.25673e+08  2187809    0.54%
 140930 91884   2.26076e+08    15   2.26891e+08   2.25673e+08  2187810    0.54%
 140931 91885   2.26076e+08    15   2.26891e+08   2.25673e+08  2187812    0.54%
 140932 91884        cutoff         2.26891e+08   2.25673e+08  2187816    0.54%
Elapsed time = 80.65 sec. (96658.42 ticks, tree = 56.19 MB, solutions = 34)
 144016 92968    infeasible         2.26891e+08   2.25673e+08  2275791    0.54%
 144017 92967        cutoff         2.26891e+08   2.25673e+08  2275866    0.54%
 144018 92966        cutoff         2.26891e+08   2.25673e+08  2275967    0.54%
 144019 92965    infeasible         2.26891e+08   2.25673e+08  2275967    0.54%
 144020 92966   2.25673e+08    19   2.26891e+08   2.25673e+08  2276013    0.54%
 144021 92967   2.25673e+08    21   2.26891e+08   2.25673e+08  2276017    0.54%
 144022 92968   2.25673e+08    20   2.26891e+08   2.25673e+08  2276026    0.54%
 144023 92969   2.25673e+08    18   2.26891e+08   2.25673e+08  2276038    0.54%
 144024 92970   2.25673e+08    18   2.26891e+08   2.25673e+08  2276040    0.54%
 144025 92971   2.25673e+08    18   2.26891e+08   2.25673e+08  2276041    0.54%
Elapsed time = 84.21 sec. (100493.91 ticks, tree = 56.87 MB, solutions = 34)
 147578 94392   2.25673e+08    24   2.26891e+08   2.25673e+08  2366045    0.54%
 147579 94393   2.25673e+08    23   2.26891e+08   2.25673e+08  2366051    0.54%
 147580 94394   2.25673e+08    24   2.26891e+08   2.25673e+08  2366061    0.54%
 147581 94395   2.25673e+08    24   2.26891e+08   2.25673e+08  2366064    0.54%
 147582 94396   2.25673e+08    19   2.26891e+08   2.25673e+08  2366067    0.54%
 147583 94397   2.25673e+08    21   2.26891e+08   2.25673e+08  2366080    0.54%
 147584 94398   2.25673e+08    21   2.26891e+08   2.25673e+08  2366095    0.54%
 147585 94399   2.25673e+08    23   2.26891e+08   2.25673e+08  2366110    0.54%
 147586 94400   2.25673e+08    24   2.26891e+08   2.25673e+08  2366116    0.54%
 147587 94401   2.25673e+08    23   2.26891e+08   2.25673e+08  2366128    0.54%
Elapsed time = 87.76 sec. (104315.39 ticks, tree = 57.77 MB, solutions = 34)
 150899 95656    infeasible         2.26891e+08   2.25673e+08  2447641    0.54%
 150900 95655    infeasible         2.26891e+08   2.25673e+08  2447641    0.54%
 150901 95654    infeasible         2.26891e+08   2.25673e+08  2447641    0.54%
 150902 95653    infeasible         2.26891e+08   2.25673e+08  2447698    0.54%
 150903 95652    infeasible         2.26891e+08   2.25673e+08  2447698    0.54%
 150904 95651        cutoff         2.26891e+08   2.25673e+08  2447735    0.54%
 150905 95650    infeasible         2.26891e+08   2.25673e+08  2447804    0.54%
 150906 95649        cutoff         2.26891e+08   2.25673e+08  2447839    0.54%
 150907 95648    infeasible         2.26891e+08   2.25673e+08  2447839    0.54%
 150908 95649   2.25673e+08    24   2.26891e+08   2.25673e+08  2447905    0.54%
Elapsed time = 91.27 sec. (108168.01 ticks, tree = 58.57 MB, solutions = 34)
 152599 96211   2.25916e+08    30   2.26891e+08   2.25673e+08  2492786    0.54%
 152600 96211   2.25926e+08    31   2.26891e+08   2.25673e+08  2492788    0.54%
 152601 96212   2.26012e+08    32   2.26891e+08   2.25673e+08  2492792    0.54%
 152602 96213   2.26012e+08    30   2.26891e+08   2.25673e+08  2492794    0.54%
 152603 96214   2.26012e+08    28   2.26891e+08   2.25673e+08  2492796    0.54%
 152604 96215   2.26012e+08    28   2.26891e+08   2.25673e+08  2492797    0.54%
 152605 96215   2.26407e+08    27   2.26891e+08   2.25673e+08  2492799    0.54%
 152606 96214   2.26407e+08    27   2.26891e+08   2.25673e+08  2492800    0.54%
 152607 96213        cutoff         2.26891e+08   2.25673e+08  2492844    0.54%
 152608 96214   2.25674e+08    36   2.26891e+08   2.25673e+08  2493026    0.54%
Elapsed time = 94.69 sec. (112229.89 ticks, tree = 58.93 MB, solutions = 34)
*154899+96959                       2.26880e+08   2.25673e+08             0.53%
 155310 97132   2.25936e+08    35   2.26880e+08   2.25673e+08  2560108    0.53%
 155311 97131        cutoff         2.26880e+08   2.25673e+08  2560112    0.53%
 155312 97130        cutoff         2.26880e+08   2.25673e+08  2560158    0.53%
 155313 97131   2.25673e+08    19   2.26880e+08   2.25673e+08  2560209    0.53%
 155314 97132   2.25673e+08    18   2.26880e+08   2.25673e+08  2560211    0.53%
 155315 97133   2.25673e+08    18   2.26880e+08   2.25673e+08  2560212    0.53%
 155316 97134   2.25673e+08    19   2.26880e+08   2.25673e+08  2560215    0.53%
 155317 97135   2.25673e+08    23   2.26880e+08   2.25673e+08  2560234    0.53%
 155318 97136   2.25673e+08    21   2.26880e+08   2.25673e+08  2560235    0.53%
 155319 97136   2.25745e+08    37   2.26880e+08   2.25673e+08  2560263    0.53%
Elapsed time = 98.14 sec. (116057.47 ticks, tree = 59.52 MB, solutions = 35)

GUB cover cuts applied:  1
Cover cuts applied:  468
Mixed integer rounding cuts applied:  4
Gomory fractional cuts applied:  6

Root node processing (before b&c):
  Real time             =    0.06 sec. (56.89 ticks)
Sequential b&c:
  Real time             =   99.95 sec. (118118.27 ticks)
                          ------------
Total (root+branch&cut) =  100.00 sec. (118175.16 ticks)

Solution pool: 35 solutions saved.

MIP - Time limit exceeded, integer feasible:  Objective =  2.2688036500e+08
Current MIP best bound =  2.2567326400e+08 (gap = 1.2071e+06, 0.53%)
Solution time =  100.00 sec.  Iterations = 2600236  Nodes = 157399 (98612)
Deterministic time = 118175.16 ticks  (1181.74 ticks/sec)


Incumbent solution written to file '/tmp/tmpB7EsRG.cplex.sol'.
